nNurses = 129;
nHours = 32;
minHours = 5;
maxHours = 18;
maxConsec = 17;
maxPresence = 11;
demand = [33, 35, 37, 34, 31, 28, 33, 37, 34, 36, 35, 37, 40, 38, 42, 40, 36, 39, 44, 44, 45, 44, 42, 43, 48, 43, 46, 41, 39, 44, 45, 48];
